
Gurobi 8.1.1 (linux64) logging started Sat Jul 20 00:53:44 2019

Changed value of parameter LogFile to opt_runs/sample/gurobi.log
   Prev: gurobi.log  Default: 
Parameter OutputFlag unchanged
   Value: 1  Min: 0  Max: 1  Default: 1
Optimize a model with 57 rows, 702 columns and 909 nonzeros
Variable types: 675 continuous, 27 integer (27 binary)
Coefficient statistics:
  Matrix range     [3e-01, 8e+03]
  Objective range  [4e+02, 1e+05]
  Bounds range     [1e+00, 1e+00]
  RHS range        [1e+00, 2e+04]
Found heuristic solution: objective 7.432144e+09
Presolve removed 4 rows and 511 columns
Presolve time: 0.00s
Presolved: 53 rows, 191 columns, 382 nonzeros
Variable types: 180 continuous, 11 integer (11 binary)

Root relaxation: objective 5.037546e+09, 87 iterations, 0.00 seconds

    Nodes    |    Current Node    |     Objective Bounds      |     Work
 Expl Unexpl |  Obj  Depth IntInf | Incumbent    BestBd   Gap | It/Node Time

     0     0 5.0375e+09    0    2 7.4321e+09 5.0375e+09  32.2%     -    0s
H    0     0                    5.140697e+09 5.0375e+09  2.01%     -    0s
     0     0 5.0774e+09    0    2 5.1407e+09 5.0774e+09  1.23%     -    0s
*    0     0               0    5.111619e+09 5.1116e+09  0.00%     -    0s

Cutting planes:
  Gomory: 1
  Implied bound: 2
  MIR: 1
  Flow cover: 1

Explored 1 nodes (103 simplex iterations) in 0.00 seconds
Thread count was 4 (of 4 available processors)

Solution count 3: 5.11162e+09 5.1407e+09 7.43214e+09 
No other solutions better than 5.11162e+09

Optimal solution found (tolerance 1.00e-04)
Best objective 5.111619425124e+09, best bound 5.111619425124e+09, gap 0.0000%

Solution quality statistics for model Unnamed :
  Maximum violation:
    Bound       : 0.00000000e+00
    Constraint  : 9.09494702e-13 (R13)
    Integrality : 0.00000000e+00
